# Compound: H3N. Old comment: H3N       
   1.0000000000000000     
     6.0000000000000000    0.0000000000000000    0.0000000000000000
     0.0000000000000000    7.0000000000000000    0.0000000000000000
     0.0000000000000000    0.0000000000000000    8.0000000000000000
   H    N 
     3     1
Direct
  0.6367348606774460  0.5676016188705358  0.4756651892713763
  0.5000000000000000  0.3646209621976933  0.4760452255823628
  0.3632651393225529  0.5676016188705358  0.4756651892713763
  0.5000000000000000  0.5000748000612775  0.5241771669243913

             NaN             NaN             NaN
             NaN             NaN             NaN
             NaN             NaN             NaN
             NaN             NaN             NaN
