# Compound: H3N. Old comment: H3N       
   1.0000000000000000     
     6.0000000000000000    0.0000000000000000    0.0000000000000000
     0.0000000000000000    7.0000000000000000    0.0000000000000000
     0.0000000000000000    0.0000000000000000    8.0000000000000000
   H    N 
     3     1
Direct
  0.6367414460748930  0.5676063753879861  0.5243096446756570
  0.5000000000000000  0.3646180059462046  0.5239726248887525
  0.3632585539251060  0.5676063753879861  0.5243096446756570
  0.5000000000000000  0.5000682432777938  0.4758173460673808

             NaN             NaN             NaN
             NaN             NaN             NaN
             NaN             NaN             NaN
             NaN             NaN             NaN
