# Compound: H3N. Old comment: H3N       
   1.0000000000000000     
     6.0000000000000000    0.0000000000000000    0.0000000000000000
     0.0000000000000000    7.0000000000000000    0.0000000000000000
     0.0000000000000000    0.0000000000000000    8.0000000000000000
   H    N 
     3     1
Direct
  0.6451225959231812  0.5717359579439800  0.4999909074846388
  0.5000000000000000  0.3564110461576845  0.4999914257902314
  0.3548774040768178  0.5717359579439800  0.4999909074846388
  0.5000000000000000  0.5000160379542593  0.5000047081809849

             NaN             NaN             NaN
             NaN             NaN             NaN
             NaN             NaN             NaN
             NaN             NaN             NaN
